p cnf 126 30
-54 -98 -21 -115 -105 -63 -37 -60 -33 33 98 68 37 105 79 115 21 54 60 63
-77 -121 66 34 43 77 121
-123 -99 -118 -2 -44 -42 -45 -113 -80 -94 -114 -54 -31 -117 -27 -72 -15 -70 -86 -53 -104 -115 -76 -107 -59 -74 -4 -120 -38 -87 -73 -52 -55 -49 -60 -25 -111 -106 -22 -119 -126 -43 -101 1 2 4 15 22 24 25 27 31 38 42 43 44 45 49 52 53 54 55 59 60 61 69 70 72 73 74 76 80 82 86 87 90 91 94 96 97 99 101 104 106 107 110 111 113 114 115 117 118 119 120 123 126 0
-116 -8 -4 -74 -5 -103 -91 -51 -24 -105 -119 -22 -113 -62 -32 -19 -52 -107 -92 -14 -97 -79 -15 -11 -31 -75 -2 -95 -98 -56 -101 -6 -86 -45 -54 -21 -88 -118 -12 -1 -111 -83 -42 -72 -125 1 2 3 4 5 6 8 9 10 11 12 13 14 15 16 17 19 20 21 22 23 24 25 26 27 28 29 30 31 32 33 34 35 36 37 38 39 40 41 42 43 44 45 46 47 49 50 51 52 54 56 57 58 59 61 62 63 64 65 66 68 69 72 73 74 75 76 78 79 80 82 83 84 86 87 88 89 90 91 92 93 94 95 96 97 98 100 101 102 103 104 105 107 108 111 113 114 115 116 117 118 119 120 121 123 124 125 126 0
-34 -117 -24 -58 -19 -13 -51 -121 -25 -101 -26 -114 -56 -106 -125 -110 -43 -62 -88 -116 -47 -92 -33 -99 -53 -111 -46 -49 -30 -113 -35 -29 -6 -115 -12 -91 -105 -122 -10 -94 -17 -8 -71 -7 -81 -63 -104 -27 -16 -107 -120 -20 -74 -48 -76 1 2 3 4 5 6 7 8 9 10 12 13 14 15 16 17 18 19 20 21 22 23 24 25 26 27 28 29 30 31 32 33 34 35 36 37 39 40 41 42 43 44 46 47 48 49 50 51 53 54 55 56 57 58 59 60 61 62 63 64 65 66 67 68 69 70 71 72 73 74 75 76 77 78 79 80 81 82 83 84 85 86 87 88 89 90 91 92 93 94 95 96 97 98 99 100 101 103 104 105 106 107 108 109 110 111 112 113 114 115 116 117 118 119 120 121 122 123 124 125 126 0
-57 -45 -115 -83 -121 -58 -78 -81 -82 -114 -101 -43 -106 -98 -113 -89 -48 -94 -122 -12 -7 -109 -93 -104 -76 -112 -60 -70 -126 -61 4 7 12 13 17 31 32 33 39 43 45 48 57 58 60 61 62 64 67 70 71 73 76 78 80 81 82 83 89 93 94 95 98 99 101 104 106 107 108 109 110 112 113 114 115 118 121 122 126 0
 113 114 103 75 28 110
-122 -64 -11 -20 -65 -42 -23 -48 -67 -33 -15 -71 -58 1 3 4 9 11 13 14 15 17 18 20 22 23 27 28 31 33 35 36 38 40 41 42 44 45 46 48 49 50 51 55 56 58 59 61 62 63 64 65 67 68 69 70 71 72 74 76 78 79 80 84 85 87 89 90 97 98 99 100 101 102 103 104 107 109 117 120 121 122 123 125 0
-118 -104 -120 -114 -13 -4 -10 -59 -80 -47 -71 -6 -22 -18 -28 -105 -51 -111 -19 -66 -12 -43 -17 -7 -30 -98 -107 -108 -115 -20 -109 -121 -11 -76 -113 -94 -38 -97 -16 -85 -86 3 4 5 6 7 8 10 11 12 13 14 15 16 17 18 19 20 21 22 23 26 28 29 30 31 33 37 38 39 40 43 45 47 48 49 51 53 54 55 57 59 61 62 65 66 67 69 70 71 72 74 75 76 78 79 80 81 82 84 85 86 88 90 93 94 97 98 99 100 101 103 104 105 106 107 108 109 110 111 112 113 114 115 116 117 118 119 120 121 122 124
-104 -95 -103 -21 -101 -49 -36 -74 -33 -88 -30 -56 -112 -107 2 3 4 5 6 7 9 12 15 21 22 23 25 26 28 29 30 31 32 33 36 37 38 39 41 42 48 49 50 51 52 53 54 55 56 57 58 59 60 64 65 66 67 68 69 70 72 73 74 76 77 79 80 81 82 83 84 88 89 91 92 93 94 95 96 101 102 103 104 105 106 107 108 109 111 112 113 115 116 117 118 122 124 126 0
-66 -108 -122 -3 -72 -64 -37 -12 -105 -113 -23 -24 -19 -117 -90 -6 -94 -54 -84 -116 -55 -35 -45 -48 -110 -41 -86 -50 -17 -119 -104 -101 -115 -32 -59 -120 -87 -75 -20 3 6 12 17 19 20 23 24 27 32 35 37 41 42 45 48 50 54 55 59 61 63 64 65 66 72 75 84 86 87 90 94 101 102 103 104 105 108 110 113 114 115 116 117 119 120 121 122 0
-19 -122 -72 -4 -114 -35 -125 4 8 17 19 24 26 30 31 34 35 39 40 46 48 52 53 55 59 60 72 78 84 100 103 107 109 114 120 122 123 125 0
-80 112 80 79
-92 -4 -29 -106 -111 -122 -17 -28 -108 -41 -42 -25 -120 -34 -63 -80 -60 -11 -62 -124 -40 -90 -14 -24 -116 -79 -103 -7 -115 1 2 3 4 5 6 7 9 10 11 12 13 14 16 17 18 19 20 21 22 23 24 25 27 28 29 30 31 33 34 35 36 37 38 39 40 41 42 43 44 45 46 47 48 49 50 51 53 55 56 57 58 59 60 61 62 63 64 66 67 68 69 71 72 73 74 75 76 77 78 79 80 81 82 83 84 85 86 87 88 90 91 92 94 95 96 97 98 99 100 101 102 103 104 105 106 107 108 109 110 111 112 113 114 115 116 117 118 119 120 121 122 123 124 125 126 0
-55 -16 -47 -113 -56 -67 -84 -101 -25 -43 -24 -125 -85 -92 1 2 3 4 5 6 7 8 9 10 11 12 13 14 15 16 17 18 19 20 21 22 23 24 25 26 27 28 29 30 31 32 33 34 35 36 37 38 39 40 41 42 43 44 46 47 48 49 50 51 52 53 54 55 56 57 58 59 60 61 62 63 64 65 66 67 68 69 70 71 72 73 74 75 76 77 78 79 80 81 82 83 84 85 86 87 88 89 90 91 92 93 94 95 96 97 98 99 100 101 102 103 104 105 106 107 108 109 110 111 112 113 114 115 116 117 118 119 120 121 123 124 125 126 0
-31 -87 -32 -111 -94 -105 -91 -34 -53 -78 -7 -109 -20 -51 -112 -120 -40 -84 -95 -115 -35 -104 -49 -66 -107 -106 -4 -42 -54 -38 -103 -44 -122 -30 -26 -13 -77 -71 -98 -3 -99 -33 -126 -62 -17 -101 -48 -6 -63 -117 -24 -93 -5 -69 -90 -47 -50 -72 -75 -46 -83 -39 -23 -123 -12 -60 -22 -57 -27 -19 -45 -97 -96 -1 -21 -118 -67 -16 -9 -125 -86 -79 -52 -64 -36 -43 -85 -56 -114 -82 -2 -89 -76 -116 -74 -80 -108 -81 -15 1 2 3 4 5 6 7 8 9 10 11 12 13 14 15 16 17 18 19 20 21 22 23 24 25 26 27 28 29 30 31 32 33 34 35 36 37 38 39 40 41 42 43 44 45 46 47 48 49 50 51 52 53 54 55 56 57 58 59 60 61 62 63 64 65 66 67 68 69 70 71 72 73 74 75 76 77 78 79 80 81 82 83 84 85 86 87 88 89 90 91 92 93 94 95 96 97 98 99 100 101 102 103 104 105 106 107 108 109 110 111 112 113 114 115 116 117 118 119 120 121 122 123 124 125 126
-93 -122 -100 -8 -106 -53 -107 -22 -44 -35 1 2 3 5 6 7 8 10 11 12 13 14 15 16 17 18 19 20 21 22 23 24 25 26 27 31 32 35 37 38 39 40 44 45 46 47 48 49 50 52 53 54 55 56 58 60 61 62 63 64 65 66 68 69 71 72 73 74 75 76 77 78 79 80 81 82 84 86 88 89 91 92 93 94 95 96 97 98 99 100 101 102 103 104 105 106 107 108 109 110 111 112 113 114 116 118 119 120 121 122 123 124 125 126
-17 -87 -45 -67 -6 -47 -44 -54 -33 -109 -32 -80 -60 -115 -38 -126 -20 -51 -16 -102 -24 -90 -125 -117 -103 6 16 17 20 24 32 33 38 44 45 47 51 54 60 67 80 87 90 102 103 109 115 117 125 126 0
-75 -77 -13 -42 -121 -122 -53 -95 -34 -31 1 2 5 8 9 10 11 12 13 14 15 16 17 18 20 21 23 24 25 26 27 28 29 31 32 33 34 35 36 38 39 40 41 42 43 45 46 48 49 51 52 53 55 56 57 58 60 61 62 63 64 65 66 67 71 73 75 77 78 79 80 81 82 83 84 86 87 88 90 92 93 95 96 98 100 103 105 107 108 109 110 112 113 115 118 119 120 121 122 124 125
-34 -119 -33 -95 -90 -93 -4 -87 -112 -114 -9 -23 -22 -13 -38 -2 -25 -79 -3 -57 1 2 3 4 5 6 7 8 9 10 11 12 13 14 15 16 17 18 19 20 21 22 23 24 25 26 27 28 29 30 31 32 33 34 35 37 38 39 42 43 44 45 46 47 48 49 50 51 52 53 54 55 56 57 58 59 60 61 62 63 64 65 66 67 68 69 70 71 72 73 74 75 76 77 78 79 80 81 82 83 84 85 86 87 88 89 90 91 92 93 94 95 96 98 99 100 101 102 103 104 105 106 107 108 109 110 111 112 113 114 115 116 117 118 119 120 121 122 123 124 125 126
-124 -95 -43 -1 -99 -70 -18 -120 -123 -110 -119 -48 -92 -103 -114 -2 -121 -33 -111 -86 -59 -42 -10 -64 -50 -87 -72 -58 -83 -113 -20 -108 -104 -26 -89 -39 -118 -102 -11 -78 -62 -106 -117 -37 -61 -21 -14 -41 -126 1 2 4 5 6 7 8 9 10 11 12 13 14 15 16 17 18 19 20 21 22 23 26 27 28 29 33 34 35 36 37 39 41 42 43 45 46 47 48 49 50 52 54 55 56 57 58 59 61 62 63 64 65 66 67 68 70 72 73 74 75 77 78 79 80 81 83 85 86 87 88 89 90 92 93 95 97 98 99 100 101 102 103 104 106 107 108 109 110 111 112 113 114 115 117 118 119 120 121 122 123 124 125 126
-75 -78 -70 -84 -31 -124 -32 -25 -54 -113 -34 -77 -100 -5 -88 -35 -50 -102 -66 -68 -87 -73 -15 -94 -122 -4 -33 -62 -51 -40 -107 -2 -85 -86 -7 -93 -90 -21 -59 -27 -81 -16 -104 -118 -109 -96 -9 -69 -26 -18 -112 -19 -121 -56 -82 -65 -74 -53 -97 -41 -111 -55 -28 -20 -119 -79 -58 -67 -10 -98 -80 -72 -95 -6 2 3 4 5 6 7 9 10 11 15 16 18 19 20 21 25 26 27 28 31 32 33 34 35 36 40 41 50 51 53 54 55 56 58 59 62 65 66 67 68 69 70 72 73 74 75 77 78 79 80 81 82 84 85 86 87 88 89 90 91 93 94 95 96 97 98 100 102 104 107 109 111 112 113 118 119 121 122 123 124
-107 -8 -75 -62 -29 -76 -121 -86 -84 -23 -77 -17 -41 -26 -122 -70 -72 -101 -85 -9 -40 -55 -47 -120 -39 -16 -104 -32 -7 -102 -60 -119 -58 -20 -45 -126 -125 -57 -54 -37 -74 -50 -63 -2 -83 -116 -78 -56 -68 1 2 3 4 5 6 7 8 9 11 13 14 15 16 17 18 20 21 22 23 24 26 27 28 29 30 31 32 33 34 36 37 39 40 41 42 43 44 45 46 47 49 50 51 52 53 54 55 56 57 58 59 60 61 62 63 64 65 66 67 68 69 70 71 72 73 74 75 76 77 78 80 81 83 84 85 86 90 91 92 93 94 95 96 99 100 101 102 103 104 106 107 109 110 112 114 116 117 118 119 120 121 122 123 124 125 126
-101 -17 -67 -58 -53 -109 17 23 29 30 34 42 53 58 62 63 67 80 89 95 101 104 105 107 109 114 119 0
-115 -59 -83 65 3 4 81 83 24 89 94 95 32 97 39 105 106 123 108 109 110 111 50 114 115 119 59 125 126
-10 -50 -38 -13 -36 -47 -57 -70 -51 -55 -40 -75 -2 -111 -94 -34 1 2 3 4 5 6 7 8 9 10 11 12 13 14 15 16 17 18 19 20 21 22 23 24 25 26 27 28 29 30 31 32 33 34 35 36 37 38 39 40 41 42 43 44 45 46 47 48 49 50 51 52 53 54 55 56 57 58 59 60 61 62 63 64 65 66 67 68 69 70 71 72 73 74 75 76 77 78 79 80 82 83 84 85 86 87 88 89 90 91 92 93 94 95 96 97 98 99 100 101 102 103 104 105 106 107 108 109 110 111 112 113 114 115 116 117 118 119 120 121 122 123 124 125 126 0
-86 -65 -47 -74 -7 -68 -118 -115 -60 -45 -10 -97 -34 -62 -55 -33 -92 -66 -32 -112 -28 -80 -81 -46 -36 -117 -15 -82 -5 -2 -72 -50 -103 -6 -90 2 3 5 6 7 10 11 12 13 14 15 17 21 23 26 27 28 29 31 32 33 34 35 36 38 41 43 45 46 47 48 49 50 51 52 53 54 55 56 58 59 60 61 62 64 65 66 67 68 69 71 72 73 74 75 80 81 82 85 86 89 90 91 92 93 96 97 100 102 103 104 105 107 108 110 111 112 113 114 115 117 118 119 125 126
-121 -42 -119 -14 -108 -89 -54 -27 -92 -117 -94 -32 -36 -1 -3 -53 -6 -82 -98 -33 -115 -103 -96 -123 -17 -58 -70 -9 -50 -59 -35 -40 -66 -55 -114 -80 -86 -16 -93 -74 -24 -13 -61 -83 -102 -85 -63 -88 -38 -97 -49 -100 -91 -18 -112 -15 -39 -48 -104 -124 -125 -81 -73 -118 -46 -77 -126 -99 -26 -111 1 2 3 6 7 9 10 13 14 15 16 17 18 24 26 27 30 32 33 35 36 38 39 40 42 43 46 48 49 50 53 54 55 57 58 59 61 62 63 65 66 70 72 73 74 76 77 78 79 80 81 82 83 85 86 87 88 89 91 92 93 94 96 97 98 99 100 101 102 103 104 105 108 111 112 114 115 117 118 119 121 122 123 124 125 126 0
-15 -124 -91 -31 -18 -50 -9 -96 -116 -118 96 9 15 50 18 116 118 54 91 124 31 0
-66 -3 -98 -104 -39 -67 -65 -90 -30 -69 -119 -49 -42 -54 -125 -23 -96 -37 -26 -64 -1 -31 -71 -33 -25 -76 -100 -53 -16 -24 -2 -21 -118 -18 -27 -11 -81 -5 -80 -12 -4 -59 1 2 3 4 5 8 10 11 12 13 15 16 18 19 21 23 24 25 26 27 28 30 31 33 37 38 39 40 41 42 46 48 49 53 54 57 59 60 62 64 65 66 67 69 71 73 74 76 77 78 80 81 87 89 90 93 96 98 99 100 102 104 105 107 111 113 115 116 117 118 119 121 122 123 125 0
